(set-logic HORN)
(set-info :source |
  Benchmark: test_safe_2019/mochi/dotprod3.ml
  Generated by MoCHi
|)
(set-info :status unknown)
(declare-fun |fail_16[22:0]| ( Int) Bool)
(declare-fun |dotprod[12:1][15:0]| ( Int  Int) Bool)
(declare-fun |dotprod[12:4]| ( Int  Int  Int) Bool)
(assert (not (exists ((x0 Int)) (|fail_16[22:0]| x0))))
(assert (forall ((x0 Int)(x1 Int)(x2 Int)) (=> (and (|dotprod[12:1][15:0]| x2 x1) (or (>= 0 (+ 1 x1)) (>= x1 x2))) (|fail_16[22:0]| x0))))
(assert (forall ((x0 Int)(x1 Int)(x2 Int)) (=> (and (|dotprod[12:4]| x0 x1 x2) (<= (+ 1 x1) x0)) (|dotprod[12:1][15:0]| x0 x1))))
(assert (forall ((x2 Int)(x0 Int)(x1 Int)) (=> (and (= x0 0) (= x1 0)) (|dotprod[12:4]| x2 x0 x1))))
(check-sat)
(get-model)
(exit)
